p cnf 7230 16
1228 -1267 0
1230 -1263 0
-57 -1228 1266 0
-47 -1230 1262 0
1228 -1269 0
-62 -1228 1268 0
1230 -1265 0
-54 -1230 1264 0
-1266 1267 0
-1262 1263 0
-1268 1269 0
62 -1269 0
57 -1267 0
-1264 1265 0
54 -1265 0
47 -1263 0
